Route #1: 1 7 30 26 34 46 54 10
Route #2: 1 11 42 57 53 14 62 25 61 17 9 47
Route #3: 1 4 31 15 28 27 36 22 8 41 37 40 45
Route #4: 1 49 21 20 52 38 60
Route #5: 1 43 33 5 55 6 32
Route #6: 1 39 19 23 29 44 13
Route #7: 1 63 50 51
Route #8: 1 16 12 58 18 2 56 24
Route #9: 1 35 59 3 64 48
cost 1669
